Copyright (C) 2013-2015, Filipe Brandao
Build (method = -2)
  #dp: 501
  Step-3' Graph: 33 vertices and 228 arcs (0.00s)
  Step-4' Graph: 29 vertices and 220 arcs (0.00s)
  #V4/#V3 = 0.88
  #A4/#A3 = 0.96
Ready! (0.00s)
Optimize a model with 67 rows, 221 columns and 609 nonzeros
Found heuristic solution: objective 45
Presolve removed 31 rows and 43 columns
Presolve time: 0.00s
Presolved: 36 rows, 178 columns, 483 nonzeros
Variable types: 0 continuous, 178 integer (87 binary)
Optimize a model with 36 rows, 178 columns and 483 nonzeros
Presolved: 36 rows, 178 columns, 483 nonzeros

Root barrier log...

Ordering time: 0.00s

Barrier statistics:
 AA' NZ     : 2.250e+02
 Factor NZ  : 5.560e+02
 Factor Ops : 1.049e+04 (less than 1 second per iteration)
 Threads    : 1

                  Objective                Residual
Iter       Primal          Dual         Primal    Dual     Compl     Time
   0   1.90368993e+02 -2.69925499e+02  3.68e+02 1.74e-01  5.14e+00     0s
   1   6.66404119e+01 -9.61601300e+01  3.66e+01 1.02e-14  7.69e-01     0s
   2   3.88114382e+01  7.21474365e+00  2.03e+00 6.11e-15  9.77e-02     0s
   3   3.24473754e+01  2.24795389e+01  1.91e-01 7.04e-15  2.81e-02     0s
   4   3.17140760e+01  2.52978476e+01  1.25e-01 1.10e-14  1.80e-02     0s
   5   3.03761884e+01  2.74996806e+01  3.89e-02 1.85e-04  8.02e-03     0s
   6   2.97621623e+01  2.89157100e+01  5.98e-03 7.95e-15  2.35e-03     0s
   7   2.96779008e+01  2.95723360e+01  1.06e-03 4.78e-15  2.92e-04     0s
   8   2.96673392e+01  2.96662545e+01  1.60e-13 4.27e-15  3.00e-06     0s
   9   2.96666667e+01  2.96666667e+01  2.57e-13 8.10e-15  1.29e-11     0s

Barrier solved model in 9 iterations and 0.00 seconds
Optimal objective 2.96666667e+01


Root relaxation: objective 2.966667e+01, 122 iterations, 0.00 seconds

    Nodes    |    Current Node    |     Objective Bounds      |     Work
 Expl Unexpl |  Obj  Depth IntInf | Incumbent    BestBd   Gap | It/Node Time

     0     0   29.66667    0    5   45.00000   29.66667  34.1%     -    0s
H    0     0                      30.0000000   29.66667  1.11%     -    0s

Explored 0 nodes (171 simplex iterations) in 0.00 seconds
Thread count was 1 (of 4 available processors)

Optimal solution found (tolerance 0.00e+00)
Best objective 3.000000000000e+01, best bound 3.000000000000e+01, gap 0.0%
Preprocessing time: 0.00 seconds
Gurobi run time: 0.00 seconds
Total run time: 0.00 seconds
Objective: 30
Solution:
1 x [i=1]
1 x [i=2]
1 x [i=3]
1 x [i=4]
1 x [i=5]
1 x [i=6]
1 x [i=7]
2 x [i=8]
1 x [i=9]
1 x [i=10]
1 x [i=11, i=38]
1 x [i=12, i=37]
1 x [i=13, i=36]
1 x [i=14, i=34]
1 x [i=15]
2 x [i=15, i=34]
1 x [i=16, i=31]
2 x [i=17, i=30]
1 x [i=18, i=27]
1 x [i=19, i=25]
1 x [i=19, i=27]
1 x [i=20, i=28]
1 x [i=21, i=27]
1 x [i=22, i=24]
1 x [i=23, i=26]
1 x [i=26, i=29, i=35]
1 x [i=29, i=32, i=33]
